120
150
53
54
60
60
59
60
51
57
41
43
59
58
50
42
55
50
48
46
42
52
52
52
45
52
46
50
50
53
50
54
59
43
51
42
52
56
49
60
57
51
57
40
44
49
45
58
52
47
51
47
50
60
60
47
47
54
41
46
57
45
54
42
52
48
56
53
44
53
47
60
40
43
50
48
60
49
54
53
48
58
47
41
53
50
43
58
51
54
52
44
51
52
48
44
54
50
57
42
58
41
50
54
48
48
48
53
41
48
47
55
49
50
43
46
56
60
48
45
42
60
